
  22   10
  10   10   10   10   10   10   10   10   10   10

   0   0   0   0   0   0   0   0   0   0   0   1 2 
   2  10  10  10  10  10  10  10  10  10  10   2 5 3 
   7  10  10  10  10  10  10  10  10  10  10   1 4 
   2  10  10  10  10  10  10  10  10  10  10   1 6 
   2  10  10  10  10  10  10  10  10  10  10   1 6 
  10  10  10  10  10  10  10  10  10  10  10   2 8 7 
   6  10  10  10  10  10  10  10  10  10  10   3 18 14 9 
   4  10  10  10  10  10  10  10  10  10  10   3 14 13 10 
  10  10  10  10  10  10  10  10  10  10  10   2 13 10 
  10  10  10  10  10  10  10  10  10  10  10   2 12 11 
   3  10  10  10  10  10  10  10  10  10  10   4 21 20 17 15 
   3  10  10  10  10  10  10  10  10  10  10   4 21 20 16 15 
   5  10  10  10  10  10  10  10  10  10  10   3 20 16 15 
   6  10  10  10  10  10  10  10  10  10  10   2 20 19 
   8  10  10  10  10  10  10  10  10  10  10   1 19 
   2  10  10  10  10  10  10  10  10  10  10   1 19 
   4  10  10  10  10  10  10  10  10  10  10   1 19 
   6  10  10  10  10  10  10  10  10  10  10   1 21 
   4  10  10  10  10  10  10  10  10  10  10   1 22
   6  10  10  10  10  10  10  10  10  10  10   1 22
   9  10  10  10  10  10  10  10  10  10  10   1 22
   0   0   0   0   0   0   0   0   0   0   0   0 
